letting initialStacks = [39, 35, 24, 7, 33, 9, 38, 48, 36, 51, 30, 3, 47, 29, 5, 34, 32, 16, 26, 14, 43, 45, 31, 25, 1, 40, 10, 50, 42, 13, 17, 12, 18, 20, 49, 23, 28, 46, 21, 19, 37, 6, 4, 41, 22, 15, 8, 2, 27, 44, 11]
